

******************************************************************************
This program contains Ipopt, a library for large-scale nonlinear optimization.
 Ipopt is released as open source code under the Eclipse Public License (EPL).
         For more information visit https://github.com/coin-or/Ipopt
******************************************************************************

This is Ipopt version 3.14.11, running with linear solver MUMPS 5.5.1.

Number of nonzeros in equality constraint Jacobian...:       34
Number of nonzeros in inequality constraint Jacobian.:        8
Number of nonzeros in Lagrangian Hessian.............:       19

Total number of variables............................:        9
                     variables with only lower bounds:        2
                variables with lower and upper bounds:        7
                     variables with only upper bounds:        0
Total number of equality constraints.................:        6
Total number of inequality constraints...............:        4
        inequality constraints with only lower bounds:        4
   inequality constraints with lower and upper bounds:        0
        inequality constraints with only upper bounds:        0

iter    objective    inf_pr   inf_du lg(mu)  ||d||  lg(rg) alpha_du alpha_pr  ls
   0  4.9999950e-02 4.42e+04 5.00e-01  -1.0 0.00e+00    -  0.00e+00 0.00e+00   0
   1  2.5369903e+02 4.15e+04 1.39e+05  -1.0 8.41e+02    -  1.18e-05 6.03e-02h  5
   2  5.2937114e+02 3.84e+04 1.21e+05  -1.0 8.52e+04    -  1.28e-02 6.87e-02h  3
   3  7.1519737e+02 3.64e+04 9.93e+04  -1.0 1.58e+05    -  1.72e-02 4.93e-02h  1
   4  7.2783256e+02 3.62e+04 9.89e+04  -1.0 2.11e+05    -  1.67e-01 3.49e-03h  1
   5  1.0631720e+03 3.29e+04 8.45e+04  -1.0 2.14e+05    -  7.11e-02 9.18e-02h  1
   6  1.3186788e+03 3.05e+04 7.48e+04  -1.0 2.91e+05    -  1.45e-01 7.49e-02h  2
   7  1.6952041e+03 2.70e+04 5.89e+04  -1.0 3.38e+05    -  7.04e-01 1.15e-01h  2
   8  1.9513881e+03 2.48e+04 5.02e+04  -1.0 3.91e+05    -  3.85e-01 8.53e-02h  4
   9  4.1825676e+03 8.39e+03 1.63e+05  -1.0 4.14e+05    -  7.17e-01 6.87e-01H  1
iter    objective    inf_pr   inf_du lg(mu)  ||d||  lg(rg) alpha_du alpha_pr  ls
  10  5.5267864e+03 8.67e+02 2.22e+05  -1.0 3.23e+05    -  9.71e-01 1.00e+00h  1
  11  5.5590670e+03 2.84e+01 1.58e+04  -1.0 7.64e+04    -  1.00e+00 1.00e+00h  1
  12  5.4077923e+03 9.52e+01 1.09e+03  -1.0 1.53e+05    -  8.92e-01 1.00e+00f  1
  13  5.3167411e+03 1.91e+02 1.33e+01  -1.0 2.54e+05    -  8.98e-01 1.00e+00f  1
  14  5.3268572e+03 2.62e+00 7.61e-01  -1.0 5.36e+04    -  1.00e+00 1.00e+00h  1
  15  5.3270495e+03 1.85e-02 8.24e-03  -1.0 3.17e+03    -  1.00e+00 1.00e+00h  1
  16  5.3270508e+03 3.69e-07 1.00e-06  -1.0 1.52e+01    -  1.00e+00 1.00e+00h  1
  17  5.3268575e+03 3.83e-03 8.78e-04  -2.5 2.97e+02    -  1.00e+00 1.00e+00f  1
  18  5.3268570e+03 3.90e-08 2.83e-08  -2.5 1.22e+00    -  1.00e+00 1.00e+00h  1
  19  5.3268516e+03 2.95e-06 6.66e-07  -3.8 8.26e+00    -  1.00e+00 1.00e+00f  1
iter    objective    inf_pr   inf_du lg(mu)  ||d||  lg(rg) alpha_du alpha_pr  ls
  20  5.3268513e+03 9.09e-09 2.05e-09  -5.7 4.59e-01    -  1.00e+00 1.00e+00h  1
  21  5.3268513e+03 2.91e-11 4.08e-12  -8.6 5.69e-03    -  1.00e+00 1.00e+00h  1

Number of Iterations....: 21

                                   (scaled)                 (unscaled)
Objective...............:   5.3268513101610752e+03    5.3268513101610752e+03
Dual infeasibility......:   4.0831949877135921e-12    4.0831949877135921e-12
Constraint violation....:   2.9103830456733704e-11    2.9103830456733704e-11
Variable bound violation:   2.5194903230385535e-06    2.5194903230385535e-06
Complementarity.........:   2.5060471085158789e-09    2.5060471085158789e-09
Overall NLP error.......:   2.5060471085158789e-09    2.5060471085158789e-09


Number of objective function evaluations             = 44
Number of objective gradient evaluations             = 22
Number of equality constraint evaluations            = 44
Number of inequality constraint evaluations          = 44
Number of equality constraint Jacobian evaluations   = 22
Number of inequality constraint Jacobian evaluations = 22
Number of Lagrangian Hessian evaluations             = 21
Total seconds in IPOPT                               = 0.015

EXIT: Optimal Solution Found.
 
Ipopt 3.14.11: Optimal Solution Found
